NAME : mr41
COMMENT : 41-city problem (DISC)
TYPE : TSP
DIMENSION : 41
EDGE_WEIGHT_TYPE : EUC_2D
NODE_COORD_SECTION
1 26 73
2 5 36
3 68 47
4 5 25
5 12 29
6 61 83
7 20 88
8 67 15
9 92 29
10 42 53
11 34 91
12 29 61
13 19 70
14 32 29
15 49 28
16 7 16
17 71 67
18 32 95
19 75 69
20 40 87
21 61 92
22 73 82
23 43 83
24 40 3
25 24 25
26 45 27
27 38 39
28 59 48
29 11 33
30 75 44
31 9 56
32 13 40
33 33 58
34 65 38
35 100 21
36 29 37
37 59 71
38 88 74
39 79 69
40 22 11
41 35 19
EOF
